Problem:    modelo
Rows:       34
Columns:    22 (21 integer, 21 binary)
Non-zeros:  112
Status:     INTEGER OPTIMAL
Objective:  obj = 15 (MINimum)

   No.   Row name        Activity     Lower bound   Upper bound
------ ------------    ------------- ------------- -------------
     1 obj                        15                             
     2 job_assignment[1]
                                   1             1             = 
     3 job_assignment[2]
                                   1             1             = 
     4 job_assignment[3]
                                   1             1             = 
     5 job_assignment[4]
                                   1             1             = 
     6 job_assignment[5]
                                   1             1             = 
     7 time_limit[1]
                                   5                           5 
     8 time_limit[2]
                                   5                           5 
     9 time_limit[3]
                                   5                           5 
    10 resource_limit[1]
                                   4                           4 
    11 resource_limit[2]
                                   4                           4 
    12 resource_limit[3]
                                   4                           4 
    13 job_assignment_limit[1,1]
                                   0                          -0 
    14 job_assignment_limit[1,2]
                                  -1                          -0 
    15 job_assignment_limit[1,3]
                                  -1                          -0 
    16 job_assignment_limit[1,4]
                                  -1                          -0 
    17 job_assignment_limit[1,5]
                                   0                          -0 
    18 job_assignment_limit[2,1]
                                  -1                          -0 
    19 job_assignment_limit[2,2]
                                  -1                          -0 
    20 job_assignment_limit[2,3]
                                   0                          -0 
    21 job_assignment_limit[2,4]
                                  -1                          -0 
    22 job_assignment_limit[2,5]
                                  -1                          -0 
    23 job_assignment_limit[3,1]
                                  -1                          -0 
    24 job_assignment_limit[3,2]
                                   0                          -0 
    25 job_assignment_limit[3,3]
                                  -1                          -0 
    26 job_assignment_limit[3,4]
                                   0                          -0 
    27 job_assignment_limit[3,5]
                                  -1                          -0 
    28 longest_idle_time
                                   1             1             = 
    29 longest_idle_time_limit[1]
                                  -1                          -0 
    30 longest_idle_time_limit[2]
                                  -1                          -0 
    31 longest_idle_time_limit[3]
                                   0                          -0 
    32 slack_constraint[1]
                                   0                       1e+06 
    33 slack_constraint[2]
                                   0                       1e+06 
    34 slack_constraint[3]
                               1e+06                       1e+06 

   No. Column name       Activity     Lower bound   Upper bound
------ ------------    ------------- ------------- -------------
     1 X[1,1]       *              1             0             1 
     2 X[2,1]       *              0             0             1 
     3 X[3,1]       *              0             0             1 
     4 X[1,2]       *              0             0             1 
     5 X[2,2]       *              0             0             1 
     6 X[3,2]       *              1             0             1 
     7 X[1,3]       *              0             0             1 
     8 X[2,3]       *              1             0             1 
     9 X[3,3]       *              0             0             1 
    10 X[1,4]       *              0             0             1 
    11 X[2,4]       *              0             0             1 
    12 X[3,4]       *              1             0             1 
    13 X[1,5]       *              1             0             1 
    14 X[2,5]       *              0             0             1 
    15 X[3,5]       *              0             0             1 
    16 y[1]         *              1             0             1 
    17 y[2]         *              1             0             1 
    18 y[3]         *              1             0             1 
    19 w[1]         *              0             0             1 
    20 w[2]         *              0             0             1 
    21 w[3]         *              1             0             1 
    22 z                           0             0               

Integer feasibility conditions:

KKT.PE: max.abs.err = 0.00e+00 on row 0
        max.rel.err = 0.00e+00 on row 0
        High quality

KKT.PB: max.abs.err = 5.82e-10 on row 34
        max.rel.err = 5.82e-16 on row 34
        High quality

End of output
